1782734869289386645503,10,1,2,06,5,1,2,014,8,1,2,07,6,1,2,012,7,1,2,09,14,1,2,010,13,1,2,08,8,1,2,07,5,1,2,04,6,1,2,014,5,1,2,01,7,1,2,011,8,1,2,04,10,1,2,011,13,1,2,06,9,1,2,03,13,1,2,09,12,1,2,06,7,1,2,010,12,1,2,05,10,1,2,02,6,1,2,05,8,1,2,012,11,1,2,014,13,1,2,013,6,1,2,02,5,1,2,01,5,1,2,08,12,1,2,07,10,1,2,015,2,1,2,011,4,1,2,012,9,1,2,02,8,1,2,011,3,1,2,04,10,1,2,08,6,1,2,03,5,1,2,013,8,1,2,09,7,1,2,09,7,1,2,08,2,1,2,013,10,1,2,013,13,1,2,03,13,1,2,02,14,1,2,05,10,1,2,013,1,1,2,06,5,1,2,07,14,1,2,0